p cnf 14 24
14 -13 7 0
14 13 1 0
-14 -9 -4 0
13 12 -1 0
-13 8 -3 0
12 -11 8 0
-12 -10 4 0
-12 9 -2 0
-12 -7 -3 0
12 6 -1 0
12 5 -3 0
-12 -5 3 0
11 -10 8 0
-11 7 6 0
10 -6 1 0
10 5 -4 0
-10 3 -1 0
9 7 -1 0
9 -3 1 0
-8 7 -3 0
-8 4 3 0
-8 3 1 0
-8 -3 1 0
-7 -4 1 0
